p edge 100 2513
e 1 2
e 1 3
e 1 4
e 1 5
e 1 6
e 1 7
e 1 8
e 1 9
e 1 10
e 1 11
e 1 12
e 1 13
e 1 14
e 1 15
e 1 16
e 1 17
e 1 18
e 1 19
e 1 20
e 1 21
e 1 22
e 1 23
e 1 24
e 1 25
e 1 26
e 1 27
e 1 28
e 1 29
e 1 30
e 1 31
e 1 32
e 1 33
e 1 34
e 1 35
e 1 36
e 1 37
e 1 38
e 1 39
e 1 40
e 1 41
e 1 42
e 1 43
e 1 44
e 1 45
e 2 4
e 2 46
e 2 47
e 2 8
e 2 48
e 2 49
e 2 50
e 2 51
e 2 10
e 2 11
e 2 52
e 2 53
e 2 54
e 2 55
e 2 56
e 2 13
e 2 14
e 2 16
e 2 18
e 2 19
e 2 57
e 2 58
e 2 59
e 2 60
e 2 61
e 2 23
e 2 24
e 2 62
e 2 26
e 2 27
e 2 63
e 2 64
e 2 65
e 2 66
e 2 28
e 2 29
e 2 67
e 2 68
e 2 69
e 2 30
e 2 31
e 2 34
e 2 70
e 2 71
e 2 38
e 2 72
e 2 73
e 2 74
e 2 41
e 2 75
e 2 76
e 2 77
e 2 42
e 2 44
e 2 78
e 2 45
e 2 79
e 3 4
e 3 7
e 3 48
e 3 9
e 3 49
e 3 51
e 3 10
e 3 11
e 3 52
e 3 54
e 3 55
e 3 13
e 3 14
e 3 15
e 3 16
e 3 17
e 3 18
e 3 58
e 3 59
e 3 80
e 3 81
e 3 60
e 3 61
e 3 22
e 3 24
e 3 62
e 3 27
e 3 63
e 3 82
e 3 65
e 3 28
e 3 83
e 3 84
e 3 85
e 3 86
e 3 69
e 3 30
e 3 87
e 3 31
e 3 33
e 3 34
e 3 88
e 3 35
e 3 38
e 3 72
e 3 39
e 3 40
e 3 89
e 3 90
e 3 41
e 3 75
e 3 77
e 3 43
e 3 44
e 3 78
e 3 45
e 3 79
e 4 46
e 4 47
e 4 8
e 4 91
e 4 92
e 4 9
e 4 49
e 4 51
e 4 12
e 4 56
e 4 16
e 4 17
e 4 18
e 4 58
e 4 93
e 4 94
e 4 59
e 4 95
e 4 60
e 4 23
e 4 24
e 4 62
e 4 26
e 4 63
e 4 65
e 4 28
e 4 83
e 4 84
e 4 85
e 4 86
e 4 68
e 4 30
e 4 70
e 4 38
e 4 89
e 4 74
e 4 96
e 4 76
e 4 42
e 4 78
e 4 45
e 4 79
e 46 5
e 46 97
e 46 6
e 46 91
e 46 48
e 46 92
e 46 9
e 46 50
e 46 51
e 46 11
e 46 52
e 46 53
e 46 98
e 46 55
e 46 56
e 46 13
e 46 16
e 46 17
e 46 18
e 46 19
e 46 99
e 46 20
e 46 58
e 46 94
e 46 59
e 46 95
e 46 80
e 46 60
e 46 22
e 46 26
e 46 63
e 46 82
e 46 100
e 46 28
e 46 83
e 46 29
e 46 84
e 46 85
e 46 67
e 46 68
e 46 69
e 46 32
e 46 34
e 46 36
e 46 38
e 46 39
e 46 40
e 46 90
e 46 74
e 46 76
e 46 77
e 46 78
e 46 45
e 5 97
e 5 6
e 5 47
e 5 7
e 5 8
e 5 91
e 5 92
e 5 9
e 5 49
e 5 50
e 5 51
e 5 52
e 5 53
e 5 54
e 5 98
e 5 13
e 5 14
e 5 15
e 5 16
e 5 18
e 5 99
e 5 20
e 5 21
e 5 58
e 5 94
e 5 59
e 5 80
e 5 81
e 5 61
e 5 22
e 5 24
e 5 62
e 5 26
e 5 63
e 5 82
e 5 64
e 5 65
e 5 100
e 5 66
e 5 28
e 5 83
e 5 29
e 5 67
e 5 87
e 5 31
e 5 32
e 5 34
e 5 35
e 5 70
e 5 37
e 5 73
e 5 39
e 5 90
e 5 75
e 5 77
e 5 42
e 5 43
e 5 44
e 5 78
e 5 79
e 97 7
e 97 8
e 97 48
e 97 92
e 97 49
e 97 51
e 97 52
e 97 54
e 97 12
e 97 13
e 97 16
e 97 17
e 97 18
e 97 99
e 97 57
e 97 58
e 97 93
e 97 95
e 97 81
e 97 60
e 97 22
e 97 23
e 97 24
e 97 25
e 97 26
e 97 63
e 97 82
e 97 64
e 97 100
e 97 83
e 97 67
e 97 86
e 97 69
e 97 30
e 97 31
e 97 32
e 97 33
e 97 34
e 97 88
e 97 71
e 97 37
e 97 38
e 97 72
e 97 39
e 97 40
e 97 89
e 97 41
e 97 96
e 97 75
e 97 76
e 97 77
e 97 42
e 97 43
e 97 44
e 97 78
e 97 79
e 6 7
e 6 9
e 6 51
e 6 10
e 6 53
e 6 12
e 6 55
e 6 56
e 6 14
e 6 15
e 6 16
e 6 19
e 6 99
e 6 20
e 6 21
e 6 95
e 6 23
e 6 24
e 6 25
e 6 63
e 6 65
e 6 100
e 6 28
e 6 83
e 6 84
e 6 86
e 6 30
e 6 87
e 6 34
e 6 35
e 6 36
e 6 71
e 6 37
e 6 72
e 6 73
e 6 89
e 6 90
e 6 75
e 6 76
e 6 77
e 6 43
e 6 44
e 6 78
e 6 45
e 6 79
e 47 8
e 47 48
e 47 92
e 47 9
e 47 50
e 47 11
e 47 52
e 47 53
e 47 55
e 47 16
e 47 17
e 47 18
e 47 19
e 47 57
e 47 21
e 47 95
e 47 80
e 47 81
e 47 60
e 47 23
e 47 25
e 47 26
e 47 82
e 47 64
e 47 65
e 47 100
e 47 28
e 47 83
e 47 85
e 47 68
e 47 69
e 47 87
e 47 32
e 47 88
e 47 35
e 47 36
e 47 70
e 47 71
e 47 37
e 47 72
e 47 39
e 47 40
e 47 90
e 47 96
e 47 75
e 47 76
e 47 43
e 47 44
e 47 78
e 47 45
e 7 8
e 7 49
e 7 50
e 7 51
e 7 11
e 7 98
e 7 12
e 7 55
e 7 56
e 7 13
e 7 14
e 7 15
e 7 18
e 7 19
e 7 57
e 7 21
e 7 59
e 7 95
e 7 81
e 7 61
e 7 22
e 7 24
e 7 26
e 7 82
e 7 65
e 7 66
e 7 28
e 7 67
e 7 86
e 7 30
e 7 88
e 7 36
e 7 71
e 7 38
e 7 40
e 7 89
e 7 90
e 7 75
e 7 79
e 8 48
e 8 92
e 8 50
e 8 51
e 8 11
e 8 54
e 8 98
e 8 12
e 8 56
e 8 16
e 8 17
e 8 19
e 8 20
e 8 57
e 8 58
e 8 93
e 8 94
e 8 81
e 8 23
e 8 24
e 8 63
e 8 64
e 8 65
e 8 100
e 8 66
e 8 28
e 8 85
e 8 30
e 8 87
e 8 31
e 8 33
e 8 36
e 8 70
e 8 37
e 8 72
e 8 40
e 8 89
e 8 75
e 8 44
e 8 79
e 91 9
e 91 49
e 91 51
e 91 13
e 91 14
e 91 16
e 91 17
e 91 20
e 91 57
e 91 94
e 91 80
e 91 60
e 91 22
e 91 25
e 91 27
e 91 63
e 91 64
e 91 100
e 91 66
e 91 28
e 91 83
e 91 29
e 91 86
e 91 87
e 91 33
e 91 34
e 91 72
e 91 73
e 91 89
e 91 90
e 91 41
e 91 75
e 91 77
e 91 44
e 91 78
e 48 92
e 48 10
e 48 11
e 48 52
e 48 53
e 48 54
e 48 98
e 48 55
e 48 13
e 48 16
e 48 57
e 48 21
e 48 58
e 48 93
e 48 95
e 48 81
e 48 22
e 48 23
e 48 24
e 48 26
e 48 82
e 48 66
e 48 28
e 48 84
e 48 30
e 48 32
e 48 33
e 48 34
e 48 35
e 48 70
e 48 37
e 48 38
e 48 72
e 48 73
e 48 39
e 48 89
e 48 90
e 48 74
e 48 77
e 48 44
e 48 78
e 92 9
e 92 49
e 92 51
e 92 11
e 92 56
e 92 14
e 92 16
e 92 17
e 92 19
e 92 99
e 92 58
e 92 94
e 92 80
e 92 81
e 92 60
e 92 61
e 92 23
e 92 24
e 92 25
e 92 62
e 92 27
e 92 82
e 92 64
e 92 65
e 92 100
e 92 66
e 92 28
e 92 83
e 92 84
e 92 85
e 92 68
e 92 69
e 92 30
e 92 87
e 92 31
e 92 32
e 92 88
e 92 36
e 92 70
e 92 37
e 92 39
e 92 40
e 92 90
e 92 74
e 92 41
e 92 43
e 92 44
e 92 78
e 92 79
e 9 50
e 9 10
e 9 52
e 9 98
e 9 12
e 9 56
e 9 13
e 9 18
e 9 20
e 9 57
e 9 21
e 9 58
e 9 94
e 9 59
e 9 95
e 9 80
e 9 22
e 9 23
e 9 25
e 9 26
e 9 63
e 9 100
e 9 28
e 9 84
e 9 68
e 9 69
e 9 32
e 9 34
e 9 88
e 9 35
e 9 36
e 9 70
e 9 71
e 9 37
e 9 73
e 9 40
e 9 89
e 9 90
e 9 41
e 9 75
e 9 76
e 9 43
e 9 78
e 9 79
e 49 50
e 49 52
e 49 12
e 49 55
e 49 15
e 49 18
e 49 19
e 49 99
e 49 95
e 49 80
e 49 81
e 49 27
e 49 63
e 49 64
e 49 66
e 49 83
e 49 29
e 49 84
e 49 85
e 49 67
e 49 86
e 49 68
e 49 87
e 49 31
e 49 33
e 49 88
e 49 70
e 49 37
e 49 38
e 49 72
e 49 40
e 49 90
e 49 96
e 49 75
e 49 42
e 49 43
e 49 45
e 49 79
e 50 10
e 50 12
e 50 55
e 50 56
e 50 14
e 50 15
e 50 16
e 50 17
e 50 18
e 50 99
e 50 20
e 50 21
e 50 95
e 50 80
e 50 60
e 50 61
e 50 25
e 50 62
e 50 82
e 50 66
e 50 28
e 50 83
e 50 29
e 50 84
e 50 67
e 50 86
e 50 68
e 50 69
e 50 88
e 50 35
e 50 36
e 50 71
e 50 38
e 50 89
e 50 96
e 50 76
e 50 77
e 50 42
e 50 43
e 50 44
e 50 79
e 51 10
e 51 11
e 51 52
e 51 12
e 51 55
e 51 15
e 51 16
e 51 18
e 51 19
e 51 58
e 51 93
e 51 95
e 51 80
e 51 60
e 51 22
e 51 23
e 51 25
e 51 27
e 51 28
e 51 83
e 51 67
e 51 68
e 51 69
e 51 31
e 51 33
e 51 34
e 51 35
e 51 36
e 51 72
e 51 73
e 51 40
e 51 89
e 51 90
e 51 96
e 51 76
e 51 45
e 10 98
e 10 56
e 10 13
e 10 15
e 10 16
e 10 17
e 10 19
e 10 99
e 10 20
e 10 57
e 10 58
e 10 94
e 10 95
e 10 81
e 10 61
e 10 23
e 10 24
e 10 25
e 10 62
e 10 63
e 10 82
e 10 66
e 10 28
e 10 83
e 10 84
e 10 85
e 10 86
e 10 68
e 10 69
e 10 30
e 10 32
e 10 36
e 10 37
e 10 39
e 10 89
e 10 90
e 10 96
e 10 75
e 10 76
e 10 43
e 10 44
e 10 78
e 10 45
e 11 52
e 11 12
e 11 14
e 11 15
e 11 99
e 11 21
e 11 58
e 11 93
e 11 94
e 11 95
e 11 60
e 11 61
e 11 24
e 11 25
e 11 64
e 11 65
e 11 28
e 11 84
e 11 85
e 11 68
e 11 30
e 11 87
e 11 88
e 11 35
e 11 70
e 11 71
e 11 37
e 11 73
e 11 40
e 11 41
e 11 77
e 11 42
e 11 44
e 11 78
e 52 98
e 52 56
e 52 14
e 52 19
e 52 99
e 52 57
e 52 58
e 52 93
e 52 59
e 52 95
e 52 60
e 52 61
e 52 25
e 52 62
e 52 27
e 52 63
e 52 64
e 52 28
e 52 83
e 52 29
e 52 85
e 52 68
e 52 30
e 52 87
e 52 88
e 52 36
e 52 70
e 52 71
e 52 37
e 52 38
e 52 72
e 52 73
e 52 40
e 52 89
e 52 90
e 52 74
e 52 41
e 52 96
e 52 76
e 52 42
e 52 45
e 52 79
e 53 54
e 53 98
e 53 12
e 53 55
e 53 16
e 53 18
e 53 19
e 53 20
e 53 57
e 53 58
e 53 94
e 53 80
e 53 61
e 53 22
e 53 23
e 53 26
e 53 82
e 53 65
e 53 28
e 53 29
e 53 84
e 53 85
e 53 86
e 53 68
e 53 30
e 53 33
e 53 35
e 53 36
e 53 72
e 53 73
e 53 39
e 53 90
e 53 41
e 53 96
e 53 44
e 53 79
e 54 98
e 54 12
e 54 55
e 54 56
e 54 13
e 54 14
e 54 16
e 54 17
e 54 18
e 54 93
e 54 59
e 54 95
e 54 81
e 54 60
e 54 24
e 54 62
e 54 26
e 54 27
e 54 63
e 54 64
e 54 65
e 54 100
e 54 66
e 54 83
e 54 84
e 54 67
e 54 86
e 54 68
e 54 87
e 54 31
e 54 34
e 54 35
e 54 36
e 54 72
e 54 73
e 54 96
e 54 75
e 54 76
e 54 77
e 54 42
e 54 44
e 54 78
e 54 45
e 54 79
e 98 12
e 98 14
e 98 15
e 98 16
e 98 18
e 98 19
e 98 99
e 98 20
e 98 57
e 98 21
e 98 95
e 98 60
e 98 61
e 98 22
e 98 23
e 98 25
e 98 62
e 98 63
e 98 82
e 98 83
e 98 29
e 98 85
e 98 30
e 98 87
e 98 32
e 98 33
e 98 70
e 98 71
e 98 37
e 98 38
e 98 72
e 98 89
e 98 74
e 98 75
e 98 77
e 98 43
e 98 44
e 98 78
e 98 79
e 12 55
e 12 13
e 12 15
e 12 16
e 12 21
e 12 58
e 12 93
e 12 94
e 12 95
e 12 60
e 12 61
e 12 22
e 12 23
e 12 62
e 12 27
e 12 63
e 12 82
e 12 64
e 12 100
e 12 66
e 12 83
e 12 29
e 12 84
e 12 67
e 12 68
e 12 87
e 12 33
e 12 35
e 12 71
e 12 37
e 12 38
e 12 39
e 12 89
e 12 74
e 12 96
e 12 42
e 12 78
e 12 79
e 55 14
e 55 15
e 55 16
e 55 17
e 55 18
e 55 19
e 55 99
e 55 20
e 55 57
e 55 21
e 55 93
e 55 95
e 55 60
e 55 61
e 55 24
e 55 25
e 55 62
e 55 26
e 55 27
e 55 65
e 55 83
e 55 84
e 55 85
e 55 67
e 55 86
e 55 30
e 55 34
e 55 35
e 55 36
e 55 70
e 55 71
e 55 37
e 55 72
e 55 73
e 55 39
e 55 74
e 55 41
e 55 76
e 55 77
e 55 44
e 55 78
e 56 13
e 56 14
e 56 15
e 56 16
e 56 17
e 56 18
e 56 99
e 56 20
e 56 21
e 56 93
e 56 94
e 56 80
e 56 61
e 56 23
e 56 24
e 56 25
e 56 26
e 56 63
e 56 82
e 56 64
e 56 83
e 56 87
e 56 32
e 56 34
e 56 35
e 56 36
e 56 70
e 56 89
e 56 74
e 56 41
e 56 77
e 56 43
e 56 44
e 56 78
e 13 14
e 13 16
e 13 18
e 13 19
e 13 99
e 13 20
e 13 57
e 13 21
e 13 94
e 13 59
e 13 95
e 13 81
e 13 60
e 13 22
e 13 24
e 13 26
e 13 27
e 13 82
e 13 66
e 13 28
e 13 84
e 13 85
e 13 68
e 13 69
e 13 30
e 13 87
e 13 31
e 13 32
e 13 71
e 13 37
e 13 38
e 13 72
e 13 40
e 13 89
e 13 74
e 13 41
e 13 96
e 13 77
e 13 42
e 13 43
e 13 45
e 14 16
e 14 17
e 14 18
e 14 19
e 14 93
e 14 94
e 14 24
e 14 26
e 14 63
e 14 82
e 14 65
e 14 66
e 14 28
e 14 29
e 14 85
e 14 67
e 14 86
e 14 68
e 14 69
e 14 30
e 14 87
e 14 36
e 14 70
e 14 72
e 14 73
e 14 39
e 14 89
e 14 90
e 14 74
e 14 77
e 14 43
e 14 44
e 14 78
e 14 45
e 15 18
e 15 19
e 15 20
e 15 21
e 15 58
e 15 93
e 15 94
e 15 59
e 15 95
e 15 81
e 15 60
e 15 61
e 15 22
e 15 62
e 15 26
e 15 64
e 15 100
e 15 86
e 15 31
e 15 33
e 15 34
e 15 35
e 15 36
e 15 37
e 15 38
e 15 72
e 15 73
e 15 40
e 15 90
e 15 74
e 15 96
e 15 76
e 15 43
e 15 44
e 15 45
e 16 17
e 16 19
e 16 20
e 16 57
e 16 93
e 16 94
e 16 95
e 16 61
e 16 24
e 16 26
e 16 27
e 16 82
e 16 64
e 16 28
e 16 29
e 16 84
e 16 85
e 16 87
e 16 31
e 16 32
e 16 33
e 16 71
e 16 37
e 16 72
e 16 39
e 16 74
e 16 41
e 16 77
e 16 42
e 16 43
e 16 44
e 16 78
e 16 79
e 17 18
e 17 99
e 17 57
e 17 58
e 17 93
e 17 80
e 17 23
e 17 24
e 17 63
e 17 82
e 17 65
e 17 66
e 17 29
e 17 84
e 17 85
e 17 67
e 17 68
e 17 69
e 17 30
e 17 87
e 17 31
e 17 33
e 17 34
e 17 88
e 17 71
e 17 37
e 17 38
e 17 40
e 17 89
e 17 41
e 17 96
e 17 76
e 17 77
e 17 42
e 17 45
e 18 19
e 18 99
e 18 57
e 18 21
e 18 58
e 18 93
e 18 94
e 18 59
e 18 81
e 18 61
e 18 23
e 18 27
e 18 66
e 18 28
e 18 85
e 18 68
e 18 69
e 18 32
e 18 33
e 18 88
e 18 71
e 18 37
e 18 38
e 18 72
e 18 39
e 18 40
e 18 74
e 18 75
e 18 77
e 18 42
e 18 78
e 18 45
e 18 79
e 19 99
e 19 57
e 19 21
e 19 94
e 19 59
e 19 95
e 19 80
e 19 81
e 19 60
e 19 61
e 19 23
e 19 62
e 19 26
e 19 27
e 19 82
e 19 64
e 19 65
e 19 28
e 19 84
e 19 85
e 19 67
e 19 69
e 19 31
e 19 32
e 19 88
e 19 35
e 19 36
e 19 71
e 19 37
e 19 38
e 19 73
e 19 40
e 19 41
e 19 96
e 19 44
e 19 78
e 19 45
e 99 57
e 99 21
e 99 58
e 99 93
e 99 94
e 99 80
e 99 81
e 99 60
e 99 61
e 99 22
e 99 23
e 99 25
e 99 62
e 99 63
e 99 64
e 99 66
e 99 28
e 99 83
e 99 29
e 99 85
e 99 86
e 99 68
e 99 69
e 99 31
e 99 34
e 99 35
e 99 36
e 99 71
e 99 39
e 99 40
e 99 89
e 99 96
e 99 75
e 99 77
e 99 42
e 99 44
e 99 79
e 20 57
e 20 58
e 20 94
e 20 59
e 20 95
e 20 60
e 20 24
e 20 25
e 20 27
e 20 63
e 20 28
e 20 85
e 20 67
e 20 86
e 20 87
e 20 31
e 20 35
e 20 70
e 20 71
e 20 38
e 20 73
e 20 39
e 20 40
e 20 89
e 20 74
e 20 77
e 20 42
e 20 45
e 20 79
e 57 21
e 57 94
e 57 95
e 57 80
e 57 81
e 57 60
e 57 61
e 57 25
e 57 62
e 57 63
e 57 28
e 57 83
e 57 29
e 57 84
e 57 85
e 57 86
e 57 68
e 57 31
e 57 36
e 57 71
e 57 38
e 57 72
e 57 73
e 57 39
e 57 89
e 57 74
e 57 96
e 57 76
e 57 77
e 57 43
e 57 78
e 57 79
e 21 95
e 21 80
e 21 22
e 21 23
e 21 24
e 21 25
e 21 26
e 21 27
e 21 64
e 21 65
e 21 66
e 21 83
e 21 85
e 21 67
e 21 69
e 21 30
e 21 87
e 21 32
e 21 33
e 21 35
e 21 70
e 21 71
e 21 37
e 21 72
e 21 73
e 21 89
e 21 41
e 21 96
e 21 77
e 21 43
e 21 44
e 21 79
e 58 93
e 58 94
e 58 95
e 58 81
e 58 60
e 58 23
e 58 25
e 58 62
e 58 26
e 58 27
e 58 64
e 58 100
e 58 66
e 58 28
e 58 84
e 58 67
e 58 86
e 58 68
e 58 69
e 58 30
e 58 34
e 58 36
e 58 73
e 58 40
e 58 89
e 58 90
e 58 74
e 58 41
e 58 96
e 58 75
e 58 76
e 58 77
e 58 42
e 93 94
e 93 59
e 93 95
e 93 81
e 93 61
e 93 22
e 93 23
e 93 82
e 93 64
e 93 65
e 93 100
e 93 66
e 93 28
e 93 83
e 93 69
e 93 30
e 93 32
e 93 34
e 93 88
e 93 35
e 93 70
e 93 38
e 93 40
e 93 90
e 93 41
e 93 96
e 93 75
e 93 43
e 93 78
e 93 45
e 93 79
e 94 80
e 94 81
e 94 61
e 94 22
e 94 23
e 94 25
e 94 26
e 94 82
e 94 66
e 94 28
e 94 84
e 94 85
e 94 86
e 94 68
e 94 30
e 94 87
e 94 31
e 94 34
e 94 70
e 94 37
e 94 38
e 94 74
e 94 96
e 94 76
e 94 43
e 94 78
e 94 45
e 59 80
e 59 81
e 59 61
e 59 24
e 59 25
e 59 62
e 59 26
e 59 27
e 59 64
e 59 100
e 59 29
e 59 85
e 59 68
e 59 32
e 59 35
e 59 73
e 59 39
e 59 89
e 59 90
e 59 41
e 59 96
e 59 76
e 59 42
e 59 78
e 95 80
e 95 81
e 95 61
e 95 22
e 95 24
e 95 62
e 95 64
e 95 84
e 95 85
e 95 86
e 95 69
e 95 30
e 95 87
e 95 32
e 95 36
e 95 70
e 95 37
e 95 73
e 95 39
e 95 40
e 95 74
e 95 75
e 95 76
e 95 77
e 95 78
e 95 45
e 95 79
e 80 60
e 80 61
e 80 22
e 80 23
e 80 24
e 80 62
e 80 63
e 80 64
e 80 65
e 80 100
e 80 66
e 80 83
e 80 84
e 80 67
e 80 68
e 80 30
e 80 87
e 80 31
e 80 33
e 80 35
e 80 36
e 80 71
e 80 38
e 80 40
e 80 74
e 80 41
e 80 96
e 80 75
e 80 76
e 80 77
e 80 78
e 80 79
e 81 60
e 81 61
e 81 22
e 81 25
e 81 26
e 81 63
e 81 82
e 81 64
e 81 65
e 81 83
e 81 84
e 81 85
e 81 67
e 81 86
e 81 68
e 81 69
e 81 33
e 81 34
e 81 70
e 81 71
e 81 37
e 81 39
e 81 40
e 81 75
e 81 42
e 81 43
e 81 45
e 81 79
e 60 61
e 60 22
e 60 62
e 60 63
e 60 82
e 60 64
e 60 66
e 60 84
e 60 67
e 60 68
e 60 30
e 60 31
e 60 36
e 60 38
e 60 72
e 60 39
e 60 90
e 60 74
e 60 41
e 60 96
e 60 75
e 60 76
e 60 42
e 60 43
e 60 79
e 61 24
e 61 25
e 61 26
e 61 82
e 61 64
e 61 65
e 61 100
e 61 66
e 61 28
e 61 83
e 61 29
e 61 84
e 61 67
e 61 86
e 61 69
e 61 30
e 61 87
e 61 33
e 61 34
e 61 88
e 61 36
e 61 70
e 61 71
e 61 72
e 61 73
e 61 39
e 61 89
e 61 90
e 61 74
e 61 41
e 61 76
e 61 43
e 61 45
e 61 79
e 22 23
e 22 24
e 22 27
e 22 63
e 22 82
e 22 64
e 22 100
e 22 66
e 22 28
e 22 84
e 22 85
e 22 68
e 22 69
e 22 30
e 22 31
e 22 32
e 22 33
e 22 34
e 22 35
e 22 70
e 22 37
e 22 38
e 22 73
e 22 40
e 22 89
e 22 90
e 22 74
e 22 41
e 22 76
e 22 42
e 22 79
e 23 24
e 23 27
e 23 63
e 23 64
e 23 66
e 23 83
e 23 29
e 23 84
e 23 85
e 23 86
e 23 68
e 23 69
e 23 87
e 23 31
e 23 32
e 23 34
e 23 88
e 23 35
e 23 36
e 23 70
e 23 71
e 23 37
e 23 38
e 23 72
e 23 73
e 23 89
e 23 74
e 23 76
e 23 77
e 23 43
e 23 78
e 23 45
e 23 79
e 24 25
e 24 27
e 24 65
e 24 100
e 24 28
e 24 84
e 24 67
e 24 86
e 24 68
e 24 87
e 24 31
e 24 32
e 24 33
e 24 88
e 24 35
e 24 36
e 24 37
e 24 38
e 24 72
e 24 89
e 24 90
e 24 74
e 24 76
e 24 44
e 24 78
e 25 62
e 25 26
e 25 27
e 25 63
e 25 82
e 25 65
e 25 83
e 25 84
e 25 67
e 25 86
e 25 68
e 25 87
e 25 32
e 25 33
e 25 34
e 25 88
e 25 35
e 25 36
e 25 71
e 25 37
e 25 72
e 25 73
e 25 90
e 25 96
e 25 76
e 25 77
e 25 45
e 62 27
e 62 64
e 62 65
e 62 28
e 62 85
e 62 67
e 62 69
e 62 32
e 62 34
e 62 88
e 62 70
e 62 37
e 62 72
e 62 73
e 62 39
e 62 74
e 62 41
e 62 96
e 62 43
e 62 78
e 62 79
e 26 64
e 26 66
e 26 28
e 26 29
e 26 84
e 26 85
e 26 69
e 26 32
e 26 88
e 26 35
e 26 37
e 26 39
e 26 89
e 26 41
e 26 43
e 26 44
e 26 78
e 27 82
e 27 83
e 27 84
e 27 67
e 27 68
e 27 32
e 27 34
e 27 88
e 27 70
e 27 38
e 27 72
e 27 41
e 27 96
e 27 75
e 27 77
e 27 78
e 27 45
e 27 79
e 63 64
e 63 66
e 63 83
e 63 29
e 63 84
e 63 85
e 63 69
e 63 30
e 63 87
e 63 31
e 63 32
e 63 38
e 63 39
e 63 89
e 63 90
e 63 41
e 63 96
e 63 75
e 63 76
e 63 43
e 63 44
e 63 45
e 63 79
e 82 65
e 82 100
e 82 66
e 82 28
e 82 69
e 82 87
e 82 33
e 82 34
e 82 36
e 82 70
e 82 71
e 82 37
e 82 38
e 82 73
e 82 39
e 82 90
e 82 74
e 82 41
e 82 76
e 82 77
e 82 42
e 82 78
e 82 45
e 82 79
e 64 100
e 64 28
e 64 84
e 64 85
e 64 67
e 64 87
e 64 32
e 64 33
e 64 34
e 64 88
e 64 36
e 64 70
e 64 71
e 64 39
e 64 40
e 64 90
e 64 74
e 64 41
e 64 96
e 64 75
e 64 42
e 64 44
e 64 78
e 64 79
e 65 66
e 65 84
e 65 85
e 65 86
e 65 68
e 65 30
e 65 31
e 65 34
e 65 35
e 65 36
e 65 70
e 65 71
e 65 73
e 65 39
e 65 40
e 65 90
e 65 74
e 65 41
e 65 75
e 65 77
e 65 79
e 100 28
e 100 29
e 100 84
e 100 85
e 100 67
e 100 86
e 100 30
e 100 87
e 100 32
e 100 33
e 100 35
e 100 70
e 100 71
e 100 37
e 100 38
e 100 73
e 100 89
e 100 90
e 100 41
e 100 75
e 100 76
e 100 43
e 100 44
e 100 78
e 66 83
e 66 85
e 66 86
e 66 68
e 66 31
e 66 32
e 66 33
e 66 34
e 66 36
e 66 71
e 66 73
e 66 90
e 66 75
e 66 42
e 66 45
e 28 83
e 28 84
e 28 85
e 28 87
e 28 31
e 28 33
e 28 35
e 28 70
e 28 71
e 28 40
e 28 89
e 28 74
e 28 96
e 28 75
e 28 76
e 28 77
e 28 42
e 28 43
e 28 45
e 28 79
e 83 29
e 83 68
e 83 30
e 83 31
e 83 32
e 83 33
e 83 34
e 83 88
e 83 70
e 83 71
e 83 38
e 83 39
e 83 40
e 83 89
e 83 41
e 83 77
e 83 44
e 83 78
e 83 45
e 83 79
e 29 84
e 29 85
e 29 67
e 29 68
e 29 69
e 29 32
e 29 33
e 29 36
e 29 37
e 29 72
e 29 39
e 29 89
e 29 41
e 29 76
e 84 67
e 84 87
e 84 33
e 84 34
e 84 36
e 84 37
e 84 38
e 84 90
e 84 74
e 84 76
e 84 77
e 84 43
e 84 45
e 85 86
e 85 68
e 85 33
e 85 88
e 85 37
e 85 38
e 85 73
e 85 89
e 85 77
e 85 43
e 85 44
e 85 78
e 85 79
e 67 68
e 67 87
e 67 32
e 67 33
e 67 34
e 67 35
e 67 36
e 67 70
e 67 37
e 67 89
e 67 90
e 67 74
e 67 41
e 67 42
e 67 43
e 67 45
e 86 69
e 86 30
e 86 31
e 86 35
e 86 36
e 86 71
e 86 37
e 86 38
e 86 72
e 86 90
e 86 74
e 86 41
e 86 76
e 86 77
e 86 43
e 86 78
e 86 45
e 68 69
e 68 87
e 68 88
e 68 36
e 68 71
e 68 72
e 68 73
e 68 39
e 68 40
e 68 89
e 68 90
e 68 96
e 68 77
e 68 42
e 68 78
e 68 79
e 69 30
e 69 31
e 69 33
e 69 35
e 69 36
e 69 70
e 69 38
e 69 73
e 69 39
e 69 40
e 69 90
e 69 74
e 69 41
e 69 75
e 69 77
e 69 42
e 69 43
e 69 44
e 69 78
e 30 33
e 30 34
e 30 88
e 30 36
e 30 71
e 30 37
e 30 72
e 30 89
e 30 41
e 30 96
e 30 77
e 30 42
e 30 43
e 30 44
e 30 79
e 87 31
e 87 32
e 87 33
e 87 34
e 87 35
e 87 70
e 87 38
e 87 39
e 87 40
e 87 89
e 87 90
e 87 74
e 87 41
e 87 96
e 87 76
e 87 77
e 87 43
e 87 45
e 31 33
e 31 88
e 31 36
e 31 37
e 31 38
e 31 89
e 31 90
e 31 74
e 31 41
e 31 96
e 31 76
e 31 42
e 31 43
e 31 44
e 31 78
e 32 34
e 32 36
e 32 71
e 32 37
e 32 72
e 32 73
e 32 39
e 32 74
e 32 96
e 32 76
e 32 77
e 32 42
e 32 43
e 32 78
e 33 88
e 33 35
e 33 36
e 33 70
e 33 37
e 33 38
e 33 40
e 33 90
e 33 41
e 33 76
e 33 77
e 33 42
e 33 44
e 33 79
e 34 88
e 34 35
e 34 37
e 34 73
e 34 39
e 34 89
e 34 90
e 34 41
e 34 76
e 34 77
e 34 43
e 88 70
e 88 71
e 88 73
e 88 39
e 88 40
e 88 89
e 88 74
e 88 75
e 88 42
e 88 43
e 88 44
e 88 45
e 35 70
e 35 38
e 35 72
e 35 40
e 35 89
e 35 96
e 35 75
e 35 76
e 35 77
e 35 42
e 35 43
e 35 44
e 35 78
e 35 45
e 36 70
e 36 37
e 36 38
e 36 73
e 36 40
e 36 75
e 36 76
e 36 77
e 36 45
e 70 71
e 70 73
e 70 39
e 70 40
e 70 89
e 70 74
e 70 76
e 70 42
e 70 43
e 70 44
e 70 45
e 71 38
e 71 72
e 71 73
e 71 39
e 71 89
e 71 74
e 71 76
e 71 79
e 37 38
e 37 89
e 37 90
e 37 41
e 37 76
e 37 77
e 37 42
e 37 43
e 37 44
e 38 72
e 38 39
e 38 41
e 38 96
e 38 42
e 38 43
e 38 44
e 38 78
e 72 73
e 72 40
e 72 89
e 72 75
e 72 76
e 72 42
e 72 44
e 72 78
e 72 45
e 72 79
e 73 39
e 73 89
e 73 90
e 73 41
e 73 96
e 73 75
e 73 76
e 73 77
e 73 44
e 73 79
e 39 89
e 39 90
e 39 74
e 39 41
e 39 75
e 39 43
e 39 45
e 40 89
e 40 90
e 40 74
e 40 41
e 40 75
e 40 76
e 40 78
e 40 45
e 40 79
e 89 74
e 89 75
e 89 77
e 89 42
e 89 43
e 89 78
e 89 79
e 90 96
e 90 42
e 90 43
e 90 44
e 90 78
e 74 76
e 74 77
e 74 43
e 74 44
e 74 45
e 41 96
e 41 75
e 41 76
e 41 42
e 41 43
e 41 44
e 41 78
e 41 45
e 96 75
e 96 76
e 96 77
e 96 42
e 96 78
e 96 45
e 96 79
e 75 42
e 75 43
e 75 44
e 75 45
e 76 77
e 76 44
e 76 79
e 77 43
e 77 45
e 42 43
e 42 44
e 42 45
e 43 44
e 43 78
e 43 45
e 43 79
e 44 78
e 44 45
e 44 79
